83
76
72
52
104
78
50
54
69
73
61
66
95
63
80
70
95
82
80
65
74
60
89
69
78
60
105
91
116
83
80
75
58
76
61
60
51
68
105
81
72
0
71
69
76
56
40
86
70
65
71
57
0
64
70
72
0
58
108
56
57
82
131
64
100
0
103
71
58
95
100
96
94
58
88
64
45
65
71
49
131
70
96
0
82
93
57
66
74
52
79
43
85
97
120
79
86
82
92
115
